(set-logic QF_S)
(set-option :strings-exp true)
(set-option :produce-models true)
(declare-fun literal_0 () String)
(assert (= literal_0 "\x2f\x63\x72\x79\x70\x74\x2e\x69\x6e\x63\x2e\x70\x68\x70"))
(assert (str.in.re literal_0 (re.++ (re.* re.allchar) (re.++ (str.to.re "\x2f\x65\x76\x69\x6c") (re.* re.allchar)))))
(check-sat)
(get-model)
